tsp_instances/TSP50/instance27.tsp
NODE_COORD_SECTION
0 170 112
1 152 49
2 20 180
3 103 48
4 50 21
5 145 133
6 107 69
7 144 200
8 173 4
9 71 11
10 137 80
11 60 31
12 123 157
13 135 92
14 90 55
15 117 14
16 55 165
17 53 184
18 163 65
19 167 160
20 190 69
21 12 0
22 198 35
23 18 74
24 72 180
25 22 93
26 176 65
27 35 173
28 36 180
29 131 10
30 98 22
31 42 151
32 28 155
33 157 6
34 79 172
35 22 184
36 86 163
37 137 195
38 109 141
39 158 0
40 181 101
41 65 41
42 183 69
43 82 152
44 91 143
45 32 112
46 200 110
47 15 66
48 149 170
49 89 174
