tsp_instances/TSP50/instance27.opt.tour
TOUR_SECTION
1
6
20
49
8
38
13
39
45
44
37
50
35
25
18
17
28
29
36
3
33
32
46
26
24
48
22
5
10
12
42
15
7
4
31
16
30
34
40
9
23
21
43
27
19
2
11
14
41
47
-1